(set-logic QF_SLIA)
(declare-fun var0 () String)
(assert (str.in_re var0 (re.++ ((_ re.loop 2 986) (re.++ (re.union (str.to_re "{?@") (re.union (str.to_re "`!") (re.union (str.to_re "C") (str.to_re "n4}")))) (re.++ (re.union (str.to_re "Y6v") (re.union (str.to_re "WC") (re.union (str.to_re "Z?@") (str.to_re "V~")))) (re.++ (re.union (str.to_re "B(*") (re.union (str.to_re "$^d") (re.union (str.to_re "[sK") (str.to_re "K'")))) (re.union (str.to_re "#") (re.union (str.to_re "Y6(") (re.union (str.to_re "zn-") (str.to_re "o\\")))))))) (re.++ ((_ re.loop 11 309) (re.++ (re.union (str.to_re "l") (re.union (str.to_re "3") (re.union (str.to_re "8h") (str.to_re "CrL")))) (re.++ (re.union (str.to_re "m!O") (re.union (str.to_re "]") (re.union (str.to_re "3") (str.to_re "yl")))) (re.++ (re.union (str.to_re "\\[") (re.union (str.to_re "XBg") (re.union (str.to_re "Jrf") (str.to_re "=F")))) (re.union (str.to_re "&") (re.union (str.to_re "},a") (re.union (str.to_re "R") (str.to_re ".#")))))))) (re.++ ((_ re.loop 11 685) (re.++ (re.union (str.to_re "5C`") (re.union (str.to_re "nu") (re.union (str.to_re "g") (str.to_re "z")))) (re.++ (re.union (str.to_re "Gss") (re.union (str.to_re "6") (re.union (str.to_re "`{") (str.to_re "upy")))) (re.++ (re.union (str.to_re "_\u0022") (re.union (str.to_re "m;>") (re.union (str.to_re "g") (str.to_re "~$R")))) (re.union (str.to_re "R8") (re.union (str.to_re "=K") (re.union (str.to_re "M=!") (str.to_re "BXd")))))))) ((_ re.loop 7 871) (re.++ (re.union (str.to_re "fvs") (re.union (str.to_re "INE") (re.union (str.to_re "Uao") (str.to_re "'")))) (re.++ (re.union (str.to_re "Z") (re.union (str.to_re "9El") (re.union (str.to_re "S>.") (str.to_re "PN")))) (re.++ (re.union (str.to_re "/E8") (re.union (str.to_re "'4t") (re.union (str.to_re "j") (str.to_re ")d.")))) (re.union (str.to_re "RU") (re.union (str.to_re "6X") (re.union (str.to_re "n@v") (str.to_re "F?")))))))))))))
(assert (not (str.in_re var0 (re.++ ((_ re.loop 2 996) (re.++ (re.union (str.to_re ",h`") (re.union (str.to_re "%#") (re.union (str.to_re "++") (str.to_re "'")))) (re.++ (re.union (str.to_re "h") (re.union (str.to_re "kkc") (re.union (str.to_re "KZ") (str.to_re "6K")))) (re.++ (re.union (str.to_re "Y$") (re.union (str.to_re "|IV") (re.union (str.to_re "[Z") (str.to_re "4")))) (re.union (str.to_re "7V?") (re.union (str.to_re "MY") (re.union (str.to_re "(]2") (str.to_re "Lyl")))))))) (re.++ ((_ re.loop 20 463) (re.++ (re.union (str.to_re "ZrP") (re.union (str.to_re "';}") (re.union (str.to_re "k") (str.to_re ")qx")))) (re.++ (re.union (str.to_re "@T") (re.union (str.to_re "g") (re.union (str.to_re "pG") (str.to_re "U")))) (re.++ (re.union (str.to_re "m:") (re.union (str.to_re "()v") (re.union (str.to_re ";JD") (str.to_re "Y<")))) (re.union (str.to_re ">A") (re.union (str.to_re "D:T") (re.union (str.to_re "/") (str.to_re "ZBp")))))))) (re.++ ((_ re.loop 3 484) (re.++ (re.union (str.to_re "M") (re.union (str.to_re "k") (re.union (str.to_re "Uab") (str.to_re "A,")))) (re.++ (re.union (str.to_re "dg") (re.union (str.to_re "|T^") (re.union (str.to_re "-o$") (str.to_re "0fx")))) (re.++ (re.union (str.to_re "%T.") (re.union (str.to_re ",l") (re.union (str.to_re "#+P") (str.to_re "\u0022Pk")))) (re.union (str.to_re "&l") (re.union (str.to_re "j") (re.union (str.to_re "[<") (str.to_re "Np^")))))))) ((_ re.loop 5 187) (re.++ (re.union (str.to_re "]") (re.union (str.to_re "2U") (re.union (str.to_re "6X~") (str.to_re "(")))) (re.++ (re.union (str.to_re "rI{") (re.union (str.to_re "Owy") (re.union (str.to_re "@j") (str.to_re "2Q6")))) (re.++ (re.union (str.to_re ":r[") (re.union (str.to_re "f") (re.union (str.to_re "{'I") (str.to_re "]IR")))) (re.union (str.to_re "/X") (re.union (str.to_re "V") (re.union (str.to_re ";z") (str.to_re "#M"))))))))))))))
(assert (not (str.in_re var0 (re.++ (re.* re.allchar) (re.++ (re.union (str.to_re "<") (re.union (str.to_re ">") (re.union (str.to_re "'") (re.union (str.to_re "\u0022") (str.to_re "&"))))) (re.* re.allchar))))))
(assert (<= 50 (str.len var0)))
(check-sat)
(get-model)
